solution status: optimal solution found
objective value:                     129637.793785718
d11(0,0)                                            1 	(obj:0)
d11(1,1)                                            1 	(obj:0)
d11(1,2)                                            1 	(obj:0)
d11(2,4)                                            1 	(obj:0)
d11(2,7)                                            1 	(obj:0)
d11(2,8)                                            1 	(obj:0)
d11(2,10)                                           1 	(obj:0)
d11(3,16)                                           1 	(obj:0)
d11(3,19)                                           1 	(obj:0)
d11(3,28)                                           1 	(obj:0)
d11(3,31)                                           1 	(obj:0)
d11(3,34)                                           1 	(obj:0)
d11(3,37)                                           1 	(obj:0)
d11(4,40)                                           1 	(obj:0)
d11(4,43)                                           1 	(obj:0)
d11(4,44)                                           1 	(obj:0)
d11(4,46)                                           1 	(obj:0)
d11(4,47)                                           1 	(obj:0)
d11(4,49)                                           1 	(obj:0)
d11(4,50)                                           1 	(obj:0)
d11(4,52)                                           1 	(obj:0)
d11(4,53)                                           1 	(obj:0)
d11(4,55)                                           1 	(obj:0)
d11(4,56)                                           1 	(obj:0)
d11(4,58)                                           1 	(obj:0)
d11(4,59)                                           1 	(obj:0)
d11(4,61)                                           1 	(obj:0)
d11(4,62)                                           1 	(obj:0)
d11(4,64)                                           1 	(obj:0)
d11(4,65)                                           1 	(obj:0)
d11(4,67)                                           1 	(obj:0)
d11(4,68)                                           1 	(obj:0)
d11(4,70)                                           1 	(obj:0)
d11(4,71)                                           1 	(obj:0)
d11(4,73)                                           1 	(obj:0)
d11(4,74)                                           1 	(obj:0)
d11(4,76)                                           1 	(obj:0)
d11(4,77)                                           1 	(obj:0)
d11(4,79)                                           1 	(obj:0)
d11(4,80)                                           1 	(obj:0)
d11(4,82)                                           1 	(obj:0)
d11(4,83)                                           1 	(obj:0)
d11(4,85)                                           1 	(obj:0)
d11(4,86)                                           1 	(obj:0)
d11(4,88)                                           1 	(obj:0)
d11(4,89)                                           1 	(obj:0)
d11(4,91)                                           1 	(obj:0)
d11(4,92)                                           1 	(obj:0)
d11(4,94)                                           1 	(obj:0)
d11(4,95)                                           1 	(obj:0)
d11(4,97)                                           1 	(obj:0)
d11(4,98)                                           1 	(obj:0)
d11(4,100)                                          1 	(obj:0)
d11(4,103)                                          1 	(obj:0)
d11(4,104)                                          1 	(obj:0)
d11(4,106)                                          1 	(obj:0)
d11(4,107)                                          1 	(obj:0)
d11(4,109)                                          1 	(obj:0)
d11(4,110)                                          1 	(obj:0)
d11(4,112)                                          1 	(obj:0)
d11(4,113)                                          1 	(obj:0)
d11(4,115)                                          1 	(obj:0)
d11(4,116)                                          1 	(obj:0)
d11(4,118)                                          1 	(obj:0)
d12(1,3)                                            1 	(obj:0)
d12(2,6)                                            1 	(obj:0)
d12(2,9)                                            1 	(obj:0)
d12(2,12)                                           1 	(obj:0)
d12(3,14)                                           1 	(obj:0)
d12(3,15)                                           1 	(obj:0)
d12(3,17)                                           1 	(obj:0)
d12(3,18)                                           1 	(obj:0)
d12(3,20)                                           1 	(obj:0)
d12(3,21)                                           1 	(obj:0)
d12(3,23)                                           1 	(obj:0)
d12(3,24)                                           1 	(obj:0)
d12(3,26)                                           1 	(obj:0)
d12(3,27)                                           1 	(obj:0)
d12(3,29)                                           1 	(obj:0)
d12(3,30)                                           1 	(obj:0)
d12(3,32)                                           1 	(obj:0)
d12(3,33)                                           1 	(obj:0)
d12(3,35)                                           1 	(obj:0)
d12(3,36)                                           1 	(obj:0)
d12(3,38)                                           1 	(obj:0)
d12(3,39)                                           1 	(obj:0)
d12(4,42)                                           1 	(obj:0)
d12(4,45)                                           1 	(obj:0)
d12(4,48)                                           1 	(obj:0)
d12(4,51)                                           1 	(obj:0)
d12(4,54)                                           1 	(obj:0)
d12(4,57)                                           1 	(obj:0)
d12(4,60)                                           1 	(obj:0)
d12(4,63)                                           1 	(obj:0)
d12(4,66)                                           1 	(obj:0)
d12(4,69)                                           1 	(obj:0)
d12(4,72)                                           1 	(obj:0)
d12(4,75)                                           1 	(obj:0)
d12(4,78)                                           1 	(obj:0)
d12(4,81)                                           1 	(obj:0)
d12(4,84)                                           1 	(obj:0)
d12(4,87)                                           1 	(obj:0)
d12(4,90)                                           1 	(obj:0)
d12(4,93)                                           1 	(obj:0)
d12(4,96)                                           1 	(obj:0)
d12(4,99)                                           1 	(obj:0)
d12(4,102)                                          1 	(obj:0)
d12(4,105)                                          1 	(obj:0)
d12(4,108)                                          1 	(obj:0)
d12(4,111)                                          1 	(obj:0)
d12(4,114)                                          1 	(obj:0)
d12(4,117)                                          1 	(obj:0)
d12(4,120)                                          1 	(obj:0)
d21(4,40)                                           1 	(obj:0)
d21(4,43)                                           1 	(obj:0)
y2(4,102)                            960.592982999987 	(obj:0)
y2(4,105)                            960.592982999987 	(obj:0)
y2(4,108)                            960.592982999987 	(obj:0)
y2(4,111)                            960.592982999987 	(obj:0)
y2(4,114)                            960.592982999987 	(obj:0)
y2(4,117)                            960.592982999987 	(obj:0)
y2(4,120)                            960.592982999987 	(obj:0)
STE(1,1)                             4398.76600333335 	(obj:0)
STE(0,0)                                         6300 	(obj:0)
STE(1,2)                             5395.53200666664 	(obj:0)
STE(1,3)                              6352.1876838643 	(obj:0)
STE(2,4)                                         2898 	(obj:0)
STE(2,5)                             3894.76600333335 	(obj:0)
STE(2,6)                             4807.32933718335 	(obj:0)
STE(2,7)                             3894.76600333329 	(obj:0)
STE(2,8)                             4891.53200666658 	(obj:0)
STE(2,9)                             5804.09534051658 	(obj:0)
STE(2,10)                            4851.42168053095 	(obj:0)
STE(2,11)                             5848.1876838643 	(obj:0)
STE(2,12)                            6760.75101771424 	(obj:0)
STE(3,13)                                        2394 	(obj:0)
STE(3,14)                            3152.66173214995 	(obj:0)
STE(3,15)                            4193.58336599999 	(obj:0)
STE(3,16)                            3390.76600333335 	(obj:0)
STE(3,17)                             4149.4277354833 	(obj:0)
STE(3,18)                            5190.34936933334 	(obj:0)
STE(3,19)                            4303.32933718335 	(obj:0)
STE(3,20)                             5061.9910693333 	(obj:0)
STE(3,21)                            6102.91270318334 	(obj:0)
STE(3,22)                            3390.76600333329 	(obj:0)
STE(3,23)                            4149.42773548324 	(obj:0)
STE(3,24)                            5190.34936933328 	(obj:0)
STE(3,25)                            4387.53200666658 	(obj:0)
STE(3,26)                            5146.19373881653 	(obj:0)
STE(3,27)                            6187.11537266657 	(obj:0)
STE(3,28)                            5300.09534051658 	(obj:0)
STE(3,29)                            6058.75707266653 	(obj:0)
STE(3,30)                            7099.67870651656 	(obj:0)
STE(3,31)                            4347.42168053095 	(obj:0)
STE(3,32)                             5106.0834126809 	(obj:0)
STE(3,33)                            6147.00504653094 	(obj:0)
STE(3,34)                            5344.18768386436 	(obj:0)
STE(3,35)                            6102.84941601425 	(obj:0)
STE(3,36)                            7143.77104986429 	(obj:0)
STE(3,37)                            6256.75101771424 	(obj:0)
STE(3,38)                            7015.41274986419 	(obj:0)
STE(3,39)                            8056.33438371423 	(obj:0)
STE(4,40)                             893.23399666665 	(obj:0)
STE(4,41)                                        1890 	(obj:0)
STE(4,42)                            2802.56333384999 	(obj:0)
STE(4,43)                             1651.8957288166 	(obj:0)
STE(4,44)                            2648.66173214995 	(obj:0)
STE(4,45)                            3561.22506599994 	(obj:0)
STE(4,46)                            2692.81736266664 	(obj:0)
STE(4,47)                            3689.58336599999 	(obj:0)
STE(4,48)                            4602.14669984998 	(obj:0)
STE(4,49)                                        1890 	(obj:0)
STE(4,50)                            2886.76600333335 	(obj:0)
STE(4,51)                            3799.32933718334 	(obj:0)
STE(4,52)                            2648.66173214995 	(obj:0)
STE(4,53)                             3645.4277354833 	(obj:0)
STE(4,54)                            4557.99106933329 	(obj:0)
STE(4,55)                            3689.58336599999 	(obj:0)
STE(4,56)                            4686.34936933334 	(obj:0)
STE(4,57)                            5598.91270318333 	(obj:0)
STE(4,58)                               2802.56333385 	(obj:0)
STE(4,59)                            3799.32933718335 	(obj:0)
STE(4,60)                            4711.89267103334 	(obj:0)
STE(4,61)                            3561.22506599995 	(obj:0)
STE(4,62)                             4557.9910693333 	(obj:0)
STE(4,63)                            5470.55440318329 	(obj:0)
STE(4,64)                            4602.14669984999 	(obj:0)
STE(4,65)                            5598.91270318334 	(obj:0)
STE(4,66)                            6511.47603703333 	(obj:0)
STE(4,67)                                        1890 	(obj:0)
STE(4,68)                            2886.76600333323 	(obj:0)
STE(4,69)                            3799.32933718328 	(obj:0)
STE(4,70)                            2648.66173214989 	(obj:0)
STE(4,71)                            3645.42773548324 	(obj:0)
STE(4,72)                            4557.99106933323 	(obj:0)
STE(4,73)                            3689.58336599993 	(obj:0)
STE(4,74)                            4686.34936933328 	(obj:0)
STE(4,75)                            5598.91270318327 	(obj:0)
STE(4,76)                            2886.76600333323 	(obj:0)
STE(4,77)                            3883.53200666658 	(obj:0)
STE(4,78)                            4796.09534051657 	(obj:0)
STE(4,79)                            3645.42773548318 	(obj:0)
STE(4,80)                            4642.19373881653 	(obj:0)
STE(4,81)                            5554.75707266652 	(obj:0)
STE(4,82)                            4686.34936933322 	(obj:0)
STE(4,83)                            5683.11537266657 	(obj:0)
STE(4,84)                            6595.67870651656 	(obj:0)
STE(4,85)                            3799.32933718323 	(obj:0)
STE(4,86)                            4796.09534051658 	(obj:0)
STE(4,87)                            5708.65867436656 	(obj:0)
STE(4,88)                            4557.99106933317 	(obj:0)
STE(4,89)                            5554.75707266653 	(obj:0)
STE(4,90)                            6467.32040651651 	(obj:0)
STE(4,91)                            5598.91270318321 	(obj:0)
STE(4,92)                            6595.67870651656 	(obj:0)
STE(4,93)                            7508.24204036655 	(obj:0)
STE(4,94)                             2846.6556771976 	(obj:0)
STE(4,95)                            3843.42168053095 	(obj:0)
STE(4,96)                            4755.98501438094 	(obj:0)
STE(4,97)                            3605.31740934755 	(obj:0)
STE(4,98)                             4602.0834126809 	(obj:0)
STE(4,99)                            5514.64674653089 	(obj:0)
STE(4,100)                           4646.23904319759 	(obj:0)
STE(4,101)                           5643.00504653094 	(obj:0)
STE(4,102)                           6555.56838038093 	(obj:0)
STE(4,103)                           3843.42168053101 	(obj:0)
STE(4,104)                           4840.18768386436 	(obj:0)
STE(4,105)                           5752.75101771435 	(obj:0)
STE(4,106)                            4602.0834126809 	(obj:0)
STE(4,107)                           5598.84941601425 	(obj:0)
STE(4,108)                           6511.41274986424 	(obj:0)
STE(4,109)                           5643.00504653094 	(obj:0)
STE(4,110)                           6639.77104986429 	(obj:0)
STE(4,111)                           7552.33438371428 	(obj:0)
STE(4,112)                           4755.98501438089 	(obj:0)
STE(4,113)                           5752.75101771424 	(obj:0)
STE(4,114)                           6665.31435156423 	(obj:0)
STE(4,115)                           5514.64674653084 	(obj:0)
STE(4,116)                           6511.41274986419 	(obj:0)
STE(4,117)                           7423.97608371417 	(obj:0)
STE(4,118)                           6555.56838038088 	(obj:0)
STE(4,119)                           7552.33438371423 	(obj:0)
STE(4,120)                           8464.89771756421 	(obj:0)
y1(4,100)                            897.089403000015 	(obj:0)
y1(4,103)                            897.089403000015 	(obj:0)
y1(4,106)                            897.089403000015 	(obj:0)
y1(4,109)                            897.089403000015 	(obj:0)
y1(4,112)                            897.089403000015 	(obj:0)
y1(4,115)                            897.089403000015 	(obj:0)
y1(4,118)                            897.089403000015 	(obj:0)
WB(3)                                 3399.3204933139 	(obj:0)
AVE(3)                                3399.3204933139 	(obj:0)
AVE(4)                               3353.21046544222 	(obj:0)
y2(4,99)                             960.592982999987 	(obj:0)
WG(4)                                3353.21046544222 	(obj:10)
BG(1)                                 3745.6267285714 	(obj:10)
BG(2)                                3377.84999999995 	(obj:10)
BG(3)                                      2462.45265 	(obj:10)
BG(4)                                24.6395345577802 	(obj:10)
WB(1)                                3134.60043707458 	(obj:0)
AVE(1)                               3134.60043707458 	(obj:0)
WB(2)                                3326.45170866632 	(obj:0)
AVE(2)                               3326.45170866643 	(obj:0)
y1(1,1)                              1257.51059699998 	(obj:0)
y1(1,2)                              360.421194000023 	(obj:0)
y1(2,4)                              897.089403000015 	(obj:0)
y1(2,7)                              897.089403000015 	(obj:0)
y1(2,10)                             897.089403000015 	(obj:0)
y1(4,40)                             897.089403000015 	(obj:0)
y1(4,43)                             897.089403000015 	(obj:0)
y1(4,46)                             897.089403000015 	(obj:0)
y1(4,49)                             897.089403000015 	(obj:0)
y1(4,52)                             897.089403000015 	(obj:0)
y1(4,55)                             897.089403000015 	(obj:0)
y1(4,58)                             897.089403000015 	(obj:0)
y1(4,61)                             897.089403000015 	(obj:0)
y1(4,64)                             897.089403000015 	(obj:0)
y1(4,67)                             897.089402999962 	(obj:0)
y1(4,70)                             897.089403000015 	(obj:0)
y1(4,73)                             897.089403000015 	(obj:0)
y1(4,76)                             897.089403000015 	(obj:0)
y1(4,79)                             897.089403000015 	(obj:0)
y1(4,82)                             897.089403000015 	(obj:0)
y1(4,85)                             897.089403000015 	(obj:0)
y1(4,88)                             897.089403000015 	(obj:0)
y1(4,91)                             897.089403000015 	(obj:0)
y1(4,94)                             897.089403000015 	(obj:0)
y1(4,97)                             897.089403000015 	(obj:0)
y2(1,3)                              585.460719857161 	(obj:0)
y2(2,6)                              960.592982999999 	(obj:0)
y2(2,9)                              960.592982999931 	(obj:0)
y2(2,12)                             960.592982999932 	(obj:0)
y2(3,14)                             798.591296999947 	(obj:0)
y2(3,15)                             1894.29827999999 	(obj:0)
y2(3,17)                             798.591296999947 	(obj:0)
y2(3,18)                             1894.29827999999 	(obj:0)
y2(3,20)                             798.591296999947 	(obj:0)
y2(3,21)                             1894.29827999999 	(obj:0)
y2(3,23)                             798.591296999947 	(obj:0)
y2(3,24)                             1894.29827999999 	(obj:0)
y2(3,26)                             798.591296999947 	(obj:0)
y2(3,27)                             1894.29827999999 	(obj:0)
y2(3,29)                             798.591296999947 	(obj:0)
y2(3,30)                             1894.29827999999 	(obj:0)
y2(3,32)                             798.591296999947 	(obj:0)
y2(3,33)                             1894.29827999999 	(obj:0)
y2(3,35)                             798.591296999947 	(obj:0)
y2(3,36)                             1894.29827999999 	(obj:0)
y2(3,38)                             798.591296999947 	(obj:0)
y2(3,39)                             1894.29827999999 	(obj:0)
y2(4,42)                             960.592982999987 	(obj:0)
y2(4,45)                             960.592982999987 	(obj:0)
y2(4,48)                             960.592982999987 	(obj:0)
y2(4,51)                             960.592982999987 	(obj:0)
y2(4,54)                             960.592982999987 	(obj:0)
y2(4,57)                             960.592982999987 	(obj:0)
y2(4,60)                             960.592982999987 	(obj:0)
y2(4,63)                             960.592982999987 	(obj:0)
y2(4,66)                             960.592982999987 	(obj:0)
y2(4,69)                             960.592982999987 	(obj:0)
y2(4,72)                             960.592982999987 	(obj:0)
y2(4,75)                             960.592982999987 	(obj:0)
y2(4,78)                             960.592982999987 	(obj:0)
y2(4,81)                             960.592982999987 	(obj:0)
y2(4,84)                             960.592982999987 	(obj:0)
y2(4,87)                             960.592982999987 	(obj:0)
y2(4,90)                             960.592982999987 	(obj:0)
y2(4,93)                             960.592982999987 	(obj:0)
y2(4,96)                             960.592982999987 	(obj:0)
